CPXPARAM_TimeLimit                               3600
CPXPARAM_Read_DataCheck                          1
CPXPARAM_MIP_Strategy_HeuristicFreq              -1
Tried aggregator 1 time.
LP Presolve eliminated 7 rows and 0 columns.
Reduced LP has 133 rows, 31 columns, and 362 nonzeros.
Presolve time = 0.00 sec. (0.06 ticks)

Iteration log . . .
Iteration:     1   Dual objective     =            23.000000
